ncol = 99;
nrow = 90;
nfloor = 1683;
floor_row = [1, 1, 1, 1, 1, 1, 1, 1, 1, 1, 1, 1, 2, 2, 2, 2, 2, 2, 2, 2, 2, 2, 3, 3, 3, 3, 3, 3, 3, 3, 3, 3, 4, 4, 4, 4, 4, 4, 4, 4, 4, 4, 4, 5, 5, 5, 5, 5, 5, 5, 5, 5, 5, 5, 6, 6, 6, 6, 6, 6, 6, 6, 6, 6, 6, 6, 6, 6, 6, 6, 6, 6, 6, 6, 6, 6, 6, 6, 6, 6, 6, 6, 6, 6, 6, 6, 6, 6, 6, 6, 6, 6, 6, 6, 6, 6, 6, 6, 6, 6, 6, 6, 6, 6, 6, 6, 6, 6, 6, 6, 6, 6, 6, 6, 6, 6, 7, 7, 7, 7, 7, 7, 7, 7, 7, 8, 8, 8, 8, 8, 8, 8, 8, 8, 8, 8, 8, 8, 8, 9, 9, 9, 9, 9, 9, 9, 9, 9, 9, 9, 9, 10, 10, 10, 10, 10, 10, 10, 10, 10, 10, 10, 11, 11, 11, 11, 11, 11, 11, 11, 11, 12, 12, 12, 12, 12, 12, 12, 12, 12, 12, 12, 12, 12, 12, 12, 13, 13, 13, 13, 13, 13, 13, 13, 13, 13, 14, 14, 14, 14, 14, 14, 14, 14, 14, 14, 14, 14, 14, 14, 14, 14, 14, 14, 14, 14, 14, 14, 14, 14, 14, 14, 14, 14, 14, 14, 14, 14, 14, 14, 14, 14, 14, 14, 14, 14, 14, 14, 14, 14, 14, 14, 14, 14, 14, 14, 14, 14, 14, 14, 14, 14, 14, 14, 14, 14, 14, 14, 14, 14, 14, 14, 14, 14, 14, 14, 14, 15, 15, 15, 15, 15, 15, 15, 15, 15, 15, 16, 16, 16, 16, 16, 16, 16, 16, 16, 16, 16, 16, 16, 16, 16, 16, 17, 17, 17, 17, 17, 17, 17, 17, 17, 17, 17, 18, 18, 18, 18, 18, 18, 18, 18, 18, 18, 18, 18, 19, 19, 19, 19, 19, 19, 19, 19, 19, 19, 20, 20, 20, 20, 20, 20, 20, 20, 20, 20, 21, 21, 21, 21, 21, 21, 21, 21, 21, 21, 21, 21, 21, 21, 21, 21, 21, 21, 21, 21, 21, 21, 21, 21, 21, 21, 21, 21, 21, 21, 21, 21, 21, 21, 21, 21, 21, 21, 21, 21, 21, 21, 21, 21, 21, 21, 21, 21, 21, 21, 21, 21, 21, 21, 21, 21, 21, 21, 21, 21, 21, 21, 21, 21, 22, 22, 22, 22, 22, 22, 22, 22, 22, 22, 22, 22, 23, 23, 23, 23, 23, 23, 23, 23, 24, 24, 24, 24, 24, 24, 24, 24, 25, 25, 25, 25, 25, 25, 25, 25, 25, 25, 25, 25, 25, 25, 25, 25, 25, 25, 25, 25, 26, 26, 26, 26, 26, 26, 26, 26, 26, 26, 27, 27, 27, 27, 27, 27, 27, 27, 27, 27, 27, 27, 27, 27, 27, 27, 27, 27, 27, 27, 27, 27, 27, 27, 27, 27, 27, 27, 27, 27, 27, 27, 27, 27, 27, 27, 27, 27, 27, 27, 27, 27, 27, 27, 27, 27, 27, 27, 27, 27, 27, 27, 27, 27, 27, 27, 27, 27, 27, 27, 27, 27, 27, 27, 27, 27, 27, 27, 27, 27, 27, 27, 28, 28, 28, 28, 28, 28, 28, 28, 28, 28, 28, 28, 28, 29, 29, 29, 29, 29, 29, 29, 29, 29, 29, 29, 29, 30, 30, 30, 30, 30, 30, 30, 30, 31, 31, 31, 31, 31, 31, 31, 31, 31, 31, 31, 31, 31, 31, 31, 31, 31, 31, 31, 32, 32, 32, 32, 32, 32, 32, 32, 32, 32, 32, 32, 33, 33, 33, 33, 33, 33, 33, 33, 33, 34, 34, 34, 34, 34, 34, 34, 34, 35, 35, 35, 35, 35, 35, 35, 35, 35, 35, 35, 35, 35, 35, 35, 35, 35, 35, 35, 35, 35, 35, 35, 35, 35, 35, 35, 35, 35, 35, 35, 35, 35, 35, 35, 35, 35, 35, 35, 35, 35, 35, 35, 35, 35, 35, 35, 35, 35, 35, 35, 35, 35, 35, 35, 35, 35, 35, 35, 35, 35, 35, 35, 35, 35, 36, 36, 36, 36, 36, 36, 36, 36, 36, 36, 36, 36, 36, 36, 36, 37, 37, 37, 37, 37, 37, 37, 37, 37, 37, 38, 38, 38, 38, 38, 38, 38, 38, 38, 38, 38, 39, 39, 39, 39, 39, 39, 39, 39, 40, 40, 40, 40, 40, 40, 40, 40, 40, 40, 40, 41, 41, 41, 41, 41, 41, 41, 41, 41, 41, 41, 41, 41, 41, 42, 42, 42, 42, 42, 42, 42, 42, 42, 42, 42, 42, 42, 43, 43, 43, 43, 43, 43, 43, 43, 43, 43, 43, 43, 43, 43, 44, 44, 44, 44, 44, 44, 44, 44, 44, 44, 44, 44, 44, 44, 45, 45, 45, 45, 45, 45, 45, 45, 45, 45, 45, 45, 45, 45, 45, 45, 45, 45, 45, 45, 45, 45, 45, 45, 45, 45, 45, 45, 45, 45, 45, 45, 45, 45, 45, 45, 45, 45, 45, 45, 45, 45, 45, 45, 45, 45, 45, 45, 45, 45, 45, 45, 45, 45, 45, 45, 45, 45, 45, 46, 46, 46, 46, 46, 46, 46, 46, 46, 46, 46, 46, 46, 46, 47, 47, 47, 47, 47, 47, 47, 47, 47, 47, 47, 47, 48, 48, 48, 48, 48, 48, 48, 48, 48, 48, 48, 49, 49, 49, 49, 49, 49, 49, 49, 49, 49, 49, 49, 49, 49, 49, 49, 50, 50, 50, 50, 50, 50, 50, 50, 50, 50, 50, 50, 50, 51, 51, 51, 51, 51, 51, 51, 51, 52, 52, 52, 52, 52, 52, 52, 52, 52, 52, 52, 52, 52, 52, 52, 52, 52, 52, 52, 52, 52, 52, 52, 52, 52, 52, 52, 52, 52, 52, 52, 52, 52, 52, 52, 52, 52, 52, 52, 52, 52, 52, 52, 52, 52, 52, 52, 52, 52, 52, 52, 52, 52, 52, 52, 52, 52, 52, 52, 52, 52, 53, 53, 53, 53, 53, 53, 53, 53, 53, 54, 54, 54, 54, 54, 54, 54, 54, 54, 54, 54, 54, 55, 55, 55, 55, 55, 55, 55, 55, 55, 55, 56, 56, 56, 56, 56, 56, 56, 56, 56, 56, 56, 56, 56, 56, 56, 57, 57, 57, 57, 57, 57, 57, 57, 57, 57, 57, 57, 58, 58, 58, 58, 58, 58, 58, 58, 58, 59, 59, 59, 59, 59, 59, 59, 59, 59, 59, 59, 60, 60, 60, 60, 60, 60, 60, 60, 60, 60, 60, 60, 60, 60, 60, 60, 60, 60, 60, 60, 60, 60, 60, 60, 60, 60, 60, 60, 60, 60, 60, 60, 60, 60, 60, 60, 60, 60, 60, 60, 60, 60, 60, 60, 60, 60, 60, 60, 60, 60, 60, 60, 60, 60, 60, 60, 60, 61, 61, 61, 61, 61, 61, 61, 61, 62, 62, 62, 62, 62, 62, 62, 62, 62, 63, 63, 63, 63, 63, 63, 63, 63, 63, 64, 64, 64, 64, 64, 64, 64, 65, 65, 65, 65, 65, 65, 65, 65, 65, 65, 65, 65, 65, 66, 66, 66, 66, 66, 66, 66, 66, 66, 66, 66, 66, 66, 66, 66, 66, 66, 66, 66, 66, 66, 66, 66, 66, 66, 66, 66, 66, 66, 66, 66, 66, 66, 66, 66, 66, 66, 66, 66, 66, 66, 66, 66, 66, 66, 66, 66, 66, 66, 66, 66, 66, 66, 66, 66, 66, 66, 66, 66, 66, 66, 66, 66, 66, 66, 66, 67, 67, 67, 67, 67, 67, 67, 67, 67, 67, 67, 67, 67, 68, 68, 68, 68, 68, 68, 68, 68, 68, 68, 68, 68, 69, 69, 69, 69, 69, 69, 69, 69, 69, 69, 69, 69, 69, 69, 70, 70, 70, 70, 70, 70, 70, 70, 70, 70, 70, 70, 70, 71, 71, 71, 71, 71, 71, 71, 71, 71, 71, 71, 71, 71, 71, 72, 72, 72, 72, 72, 72, 72, 72, 72, 72, 73, 73, 73, 73, 73, 73, 73, 73, 73, 73, 74, 74, 74, 74, 74, 74, 74, 74, 74, 74, 74, 74, 74, 74, 74, 74, 74, 74, 74, 74, 74, 74, 74, 74, 74, 74, 74, 74, 74, 74, 74, 74, 74, 74, 74, 74, 74, 74, 74, 74, 74, 74, 74, 74, 74, 74, 74, 74, 74, 74, 74, 74, 74, 74, 74, 74, 74, 74, 74, 74, 74, 74, 74, 74, 75, 75, 75, 75, 75, 75, 75, 75, 75, 75, 75, 75, 75, 75, 76, 76, 76, 76, 76, 76, 76, 76, 76, 76, 76, 76, 76, 76, 76, 76, 76, 76, 77, 77, 77, 77, 77, 77, 77, 77, 77, 77, 77, 77, 77, 77, 78, 78, 78, 78, 78, 78, 78, 78, 78, 78, 78, 78, 79, 79, 79, 79, 79, 79, 79, 79, 79, 79, 80, 80, 80, 80, 80, 80, 80, 80, 80, 80, 80, 80, 80, 80, 80, 80, 80, 80, 80, 80, 80, 80, 80, 80, 80, 80, 80, 80, 80, 80, 80, 80, 80, 80, 80, 80, 80, 80, 80, 80, 80, 80, 80, 80, 80, 80, 80, 80, 80, 80, 80, 80, 80, 80, 80, 80, 80, 80, 80, 80, 80, 80, 80, 80, 80, 80, 80, 80, 80, 80, 80, 80, 80, 81, 81, 81, 81, 81, 81, 81, 81, 81, 81, 81, 81, 81, 81, 81, 82, 82, 82, 82, 82, 82, 82, 82, 83, 83, 83, 83, 83, 83, 83, 83, 83, 83, 83, 84, 84, 84, 84, 84, 84, 84, 84, 84, 84, 84, 84, 84, 84, 85, 85, 85, 85, 85, 85, 85, 85, 85, 85, 85, 85, 85, 85, 85, 85, 85, 85, 85, 85, 85, 85, 85, 85, 85, 85, 85, 85, 85, 85, 85, 85, 85, 85, 85, 85, 85, 85, 85, 85, 85, 85, 85, 85, 85, 85, 85, 85, 85, 85, 85, 85, 85, 85, 85, 85, 85, 85, 85, 85, 85, 85, 85, 85, 85, 86, 86, 86, 86, 86, 86, 86, 86, 86, 86, 87, 87, 87, 87, 87, 87, 87, 87, 87, 88, 88, 88, 88, 88, 88, 88, 88, 88, 88, 88, 88, 89, 89, 89, 89, 89, 89, 89, 89, 89, 89, 89, 89, 89, 90, 90, 90, 90, 90, 90, 90, 90];
floor_col = [7, 12, 13, 20, 42, 49, 58, 64, 71, 73, 76, 83, 7, 17, 32, 49, 60, 64, 69, 71, 78, 91, 9, 13, 16, 17, 27, 29, 58, 71, 76, 91, 7, 13, 17, 27, 39, 42, 49, 58, 71, 83, 93, 14, 17, 27, 28, 32, 52, 58, 64, 71, 83, 93, 3, 4, 6, 10, 11, 12, 13, 14, 16, 18, 20, 21, 22, 23, 24, 27, 28, 30, 35, 36, 39, 40, 43, 44, 46, 48, 50, 51, 52, 53, 54, 55, 56, 57, 58, 61, 63, 64, 66, 67, 70, 72, 73, 74, 76, 79, 80, 81, 82, 83, 84, 85, 86, 87, 88, 91, 92, 93, 94, 96, 98, 99, 2, 17, 27, 32, 49, 58, 76, 83, 93, 1, 18, 27, 32, 42, 49, 53, 58, 64, 71, 76, 83, 93, 97, 4, 6, 7, 17, 18, 42, 64, 67, 71, 76, 83, 93, 1, 7, 17, 32, 33, 49, 64, 71, 72, 76, 93, 17, 27, 32, 42, 58, 71, 76, 82, 83, 6, 19, 32, 36, 42, 49, 53, 64, 66, 68, 70, 71, 76, 83, 93, 7, 17, 27, 49, 64, 71, 76, 82, 83, 93, 1, 2, 4, 5, 6, 7, 9, 10, 11, 12, 13, 14, 16, 17, 19, 20, 22, 23, 24, 25, 26, 27, 28, 31, 33, 34, 36, 37, 38, 39, 40, 41, 42, 43, 44, 45, 46, 47, 50, 53, 55, 57, 59, 60, 61, 62, 63, 64, 65, 66, 67, 68, 70, 71, 73, 75, 78, 80, 83, 84, 85, 86, 87, 88, 90, 92, 93, 94, 95, 97, 98, 7, 17, 32, 42, 49, 58, 60, 76, 83, 88, 1, 7, 17, 27, 32, 42, 46, 57, 64, 67, 71, 76, 83, 93, 97, 99, 6, 7, 17, 32, 42, 45, 64, 71, 76, 83, 93, 7, 15, 17, 19, 32, 42, 49, 58, 64, 69, 76, 83, 7, 17, 42, 49, 58, 68, 71, 76, 89, 93, 2, 7, 9, 27, 32, 49, 58, 64, 76, 93, 2, 4, 5, 6, 8, 9, 10, 13, 14, 15, 16, 19, 20, 21, 22, 24, 25, 27, 29, 34, 35, 38, 39, 41, 43, 44, 45, 46, 48, 51, 53, 54, 56, 58, 59, 62, 64, 65, 67, 68, 70, 71, 75, 76, 78, 79, 81, 82, 83, 84, 85, 86, 87, 88, 89, 90, 92, 93, 94, 95, 96, 97, 98, 99, 7, 11, 15, 17, 27, 35, 42, 46, 49, 58, 64, 93, 7, 27, 29, 32, 42, 44, 49, 76, 7, 27, 32, 38, 42, 64, 71, 93, 7, 8, 17, 20, 27, 32, 42, 48, 49, 50, 52, 55, 58, 64, 73, 76, 81, 83, 86, 93, 7, 27, 35, 42, 43, 49, 58, 71, 88, 96, 2, 3, 6, 7, 8, 9, 10, 11, 12, 13, 14, 15, 16, 17, 18, 19, 20, 22, 23, 24, 26, 27, 28, 29, 30, 31, 32, 36, 37, 38, 39, 40, 43, 44, 45, 47, 48, 49, 50, 51, 52, 53, 54, 55, 57, 58, 59, 60, 61, 63, 64, 65, 67, 68, 70, 71, 72, 73, 74, 75, 76, 78, 83, 84, 86, 88, 89, 92, 95, 96, 97, 98, 7, 17, 24, 27, 32, 42, 49, 56, 64, 68, 71, 83, 93, 7, 24, 27, 32, 42, 49, 58, 71, 76, 83, 89, 93, 7, 14, 49, 58, 64, 71, 83, 84, 1, 9, 17, 27, 28, 32, 42, 43, 49, 58, 64, 71, 76, 78, 80, 83, 84, 93, 95, 17, 27, 32, 42, 49, 58, 70, 71, 76, 80, 83, 93, 27, 32, 42, 49, 83, 87, 91, 93, 99, 27, 32, 35, 58, 70, 71, 83, 93, 1, 2, 3, 4, 6, 7, 8, 9, 11, 13, 14, 15, 17, 18, 19, 20, 22, 23, 25, 26, 27, 28, 29, 30, 31, 32, 34, 36, 37, 41, 42, 44, 46, 48, 50, 51, 53, 54, 56, 57, 58, 59, 60, 62, 64, 65, 66, 67, 70, 71, 72, 75, 76, 78, 79, 82, 83, 87, 88, 89, 90, 93, 94, 95, 98, 1, 17, 27, 28, 38, 41, 42, 49, 51, 58, 66, 71, 82, 83, 93, 7, 17, 27, 32, 64, 65, 66, 71, 76, 87, 7, 11, 17, 27, 32, 42, 58, 71, 76, 83, 86, 9, 22, 27, 64, 66, 76, 86, 93, 14, 18, 32, 42, 58, 64, 68, 70, 71, 83, 93, 8, 15, 17, 26, 32, 42, 49, 55, 58, 67, 71, 76, 83, 93, 7, 17, 25, 27, 32, 42, 54, 58, 64, 71, 76, 83, 95, 7, 17, 27, 29, 33, 42, 49, 58, 64, 71, 72, 83, 86, 93, 7, 17, 19, 27, 40, 49, 60, 64, 71, 76, 83, 85, 89, 93, 1, 2, 3, 4, 5, 6, 7, 8, 9, 10, 11, 13, 14, 15, 17, 18, 19, 20, 21, 22, 23, 25, 28, 29, 30, 33, 35, 37, 39, 40, 42, 43, 45, 47, 50, 55, 59, 60, 64, 66, 68, 69, 71, 73, 76, 78, 79, 81, 82, 83, 84, 91, 92, 93, 95, 96, 97, 98, 99, 5, 7, 15, 27, 42, 49, 50, 52, 58, 64, 71, 91, 93, 95, 11, 12, 17, 27, 38, 42, 64, 71, 76, 83, 93, 95, 7, 17, 27, 42, 48, 49, 58, 64, 71, 93, 99, 3, 17, 27, 31, 32, 49, 53, 55, 58, 64, 71, 76, 83, 88, 93, 97, 7, 17, 27, 32, 42, 43, 58, 64, 71, 75, 83, 91, 93, 7, 17, 27, 58, 62, 71, 83, 93, 2, 3, 4, 10, 12, 14, 16, 18, 19, 20, 21, 22, 23, 24, 25, 27, 28, 29, 31, 32, 33, 35, 39, 40, 41, 43, 44, 47, 51, 53, 54, 57, 58, 59, 60, 61, 62, 63, 64, 65, 66, 68, 71, 74, 75, 76, 77, 78, 79, 81, 83, 84, 85, 86, 87, 88, 89, 90, 91, 95, 99, 17, 32, 42, 57, 58, 64, 76, 83, 93, 17, 25, 32, 42, 47, 49, 56, 58, 59, 64, 76, 93, 5, 7, 14, 49, 53, 64, 71, 73, 92, 93, 7, 14, 15, 17, 27, 29, 32, 42, 53, 58, 59, 71, 76, 81, 83, 17, 32, 35, 36, 42, 48, 63, 64, 69, 71, 83, 93, 7, 24, 32, 58, 64, 71, 76, 83, 93, 17, 27, 32, 49, 59, 62, 64, 67, 71, 76, 93, 2, 3, 4, 7, 9, 12, 15, 16, 18, 19, 20, 21, 22, 24, 25, 26, 28, 30, 32, 34, 35, 38, 39, 40, 41, 44, 46, 48, 49, 50, 51, 52, 53, 55, 56, 58, 59, 60, 62, 63, 67, 68, 69, 70, 73, 75, 80, 82, 85, 87, 88, 92, 93, 94, 95, 96, 98, 7, 36, 46, 49, 64, 83, 87, 89, 1, 7, 17, 27, 30, 64, 76, 83, 93, 7, 10, 17, 27, 49, 58, 71, 83, 93, 7, 8, 17, 32, 52, 83, 93, 7, 17, 23, 27, 32, 46, 55, 58, 60, 71, 76, 93, 99, 1, 3, 4, 5, 6, 7, 8, 9, 11, 12, 13, 14, 16, 19, 20, 21, 22, 24, 25, 27, 28, 29, 30, 31, 32, 33, 36, 37, 39, 40, 42, 43, 45, 46, 49, 50, 52, 53, 54, 56, 57, 58, 59, 60, 61, 66, 68, 69, 70, 71, 72, 73, 74, 76, 78, 80, 81, 82, 85, 88, 90, 92, 93, 94, 98, 99, 7, 9, 17, 29, 35, 36, 42, 49, 58, 64, 76, 83, 93, 7, 17, 20, 34, 35, 42, 49, 58, 64, 71, 83, 93, 7, 17, 27, 29, 32, 40, 42, 49, 52, 53, 58, 65, 67, 93, 7, 9, 11, 17, 32, 34, 42, 50, 58, 68, 83, 93, 99, 7, 19, 22, 27, 32, 42, 49, 60, 64, 71, 76, 82, 83, 93, 4, 5, 27, 32, 42, 49, 58, 76, 83, 84, 7, 9, 17, 27, 28, 32, 45, 58, 62, 71, 1, 2, 3, 4, 5, 9, 10, 11, 12, 13, 14, 15, 16, 17, 18, 20, 21, 22, 23, 24, 26, 27, 29, 30, 31, 34, 35, 36, 37, 38, 41, 42, 43, 45, 46, 47, 49, 51, 52, 53, 54, 56, 57, 59, 62, 64, 66, 69, 71, 73, 77, 79, 81, 83, 84, 86, 89, 91, 92, 93, 94, 97, 98, 99, 6, 7, 17, 27, 29, 37, 42, 61, 64, 71, 76, 81, 90, 93, 2, 7, 17, 20, 27, 30, 32, 33, 42, 49, 55, 76, 77, 83, 84, 93, 95, 97, 3, 17, 26, 32, 42, 48, 50, 58, 64, 71, 76, 82, 83, 93, 6, 7, 17, 36, 42, 49, 64, 68, 71, 76, 83, 93, 3, 7, 27, 49, 51, 58, 64, 71, 83, 93, 2, 4, 5, 6, 7, 8, 11, 12, 13, 14, 15, 16, 17, 18, 20, 21, 23, 24, 25, 26, 28, 29, 30, 31, 32, 36, 38, 40, 42, 43, 44, 45, 46, 47, 48, 49, 51, 52, 53, 54, 55, 56, 57, 58, 59, 61, 62, 63, 64, 65, 66, 67, 68, 70, 71, 73, 74, 76, 77, 79, 80, 81, 82, 83, 85, 86, 87, 88, 92, 93, 95, 96, 99, 2, 7, 11, 19, 27, 32, 42, 49, 57, 58, 64, 82, 83, 91, 93, 7, 12, 49, 62, 64, 71, 76, 83, 7, 17, 28, 41, 57, 58, 59, 64, 71, 83, 93, 5, 7, 10, 12, 17, 27, 32, 42, 49, 58, 64, 91, 93, 95, 3, 5, 7, 9, 10, 12, 13, 15, 16, 18, 19, 20, 21, 23, 24, 25, 26, 28, 30, 34, 36, 40, 41, 42, 43, 44, 45, 46, 48, 49, 52, 53, 54, 55, 56, 60, 61, 62, 63, 64, 65, 67, 69, 71, 73, 74, 76, 80, 81, 82, 84, 85, 86, 87, 88, 89, 90, 92, 93, 94, 95, 96, 97, 98, 99, 7, 17, 22, 27, 60, 64, 71, 76, 83, 93, 7, 17, 20, 36, 37, 42, 49, 64, 93, 7, 15, 17, 19, 27, 32, 42, 55, 58, 64, 71, 76, 17, 32, 42, 49, 55, 56, 67, 71, 76, 77, 83, 91, 94, 17, 22, 27, 35, 42, 58, 64, 76];

